NAME : portgen-22-4
COMMENT : portgen N=22, seed=4
TYPE : TSP
DIMENSION : 22
EDGE_WEIGHT_TYPE : EUC_2D
NODE_COORD_SECTION
1 213622 224693
2 545051 491543
3 576725 33728
4 814556 135630
5 858986 874678
6 961043 390416
7 539534 72895
8 127459 654894
9 667768 290420
10 159647 52546
11 174813 331960
12 97712 874332
13 897116 988006
14 598527 851992
15 231870 710048
16 744526 99853
17 856331 242294
18 641366 247446
19 102397 859877
20 845803 678106
21 304530 600919
22 594234 842552
